n_object = 10;
max_length = 50;
max_width = 50;
shape = array2d(1..n_object,1..2, [4,2,
                                   2,5,
                                   7,8,
                                   1,3,
                                   7,2,
                                   1,6,
                                   8,2,
                                   1,9,
                                   3,3,
                                   2,2]);